(Cost-function, node_ordering) that gave the best result for SCI = (0, 1)
MST
Route #1: 28 12 80 68 76 77 3 79 33 81 9 71 66 65 35 34 78 29 24 54 55 25 4 40 58 53
Route #2: 26 21 73 72 74 75 56 39 67 23 22 41 2 57 15 43 42 87 97 92 37 98 59 95 94 13
Route #3: 6 96 99 93 85 100 91 61 16 44 14 38 86 17 45 84 5 60 89
Route #4: 52 18 83 8 46 47 36 49 64 63 90 32 10 62 11 19 48 82 7 88 31 70 30 20 51 50 1 69 27
Cost 725.049
VALID solution
Total execution time = 8.98367 s
